p tw 37 42
1 2
2 13
3 4
4 5
5 6
6 7
7 8
8 9
9 10
9 11
10 30
11 12
12 14
13 24
14 15
15 16
15 33
16 30
17 18
18 19
19 20
20 21
20 26
21 22
22 23
22 26
23 25
24 32
25 28
26 27
27 28
28 29
29 30
30 31
32 33
33 34
34 35
35 36
35 17
36 37
37 3
37 17
